NAME : X_26_seed_123_id_16
TYPE : CVRP
DIMENSION : 219
EDGE_WEIGHT_TYPE : EUC_2D
CAPACITY : 3
NODE_COORD_SECTION
1	0	0
2	197	623
3	968	389
4	477	300
5	419	270
6	713	592
7	428	6
8	147	852
9	584	329
10	66	539
11	300	713
12	291	966
13	27	549
14	900	486
15	852	187
16	622	452
17	869	52
18	618	929
19	82	507
20	568	922
21	28	952
22	506	729
23	545	153
24	900	189
25	219	823
26	823	69
27	358	15
28	969	842
29	669	91
30	337	82
31	529	866
32	758	405
33	565	431
34	33	404
35	486	558
36	938	550
37	807	362
38	357	989
39	696	906
40	715	248
41	623	971
42	684	281
43	831	469
44	415	957
45	701	489
46	219	793
47	412	999
48	295	50
49	347	959
50	586	317
51	509	919
52	111	948
53	581	248
54	873	802
55	991	183
56	294	664
57	967	449
58	383	705
59	92	273
60	570	886
61	371	94
62	552	681
63	119	963
64	105	842
65	104	524
66	764	306
67	280	30
68	641	129
69	77	900
70	379	74
71	486	974
72	619	752
73	734	502
74	927	203
75	641	543
76	342	377
77	242	596
78	192	555
79	479	821
80	610	807
81	992	988
82	756	329
83	734	930
84	661	116
85	792	21
86	404	233
87	840	83
88	836	573
89	393	283
90	511	831
91	236	181
92	332	519
93	807	44
94	594	954
95	662	591
96	1	598
97	906	60
98	261	669
99	964	714
100	629	836
101	623	431
102	214	223
103	880	70
104	780	593
105	777	214
106	343	362
107	824	195
108	725	508
109	134	883
110	748	583
111	366	38
112	306	251
113	862	400
114	914	47
115	235	903
116	475	245
117	226	622
118	849	794
119	372	544
120	618	516
121	606	727
122	347	709
123	979	152
124	238	564
125	158	981
126	166	516
127	720	685
128	897	102
129	703	490
130	582	919
131	43	306
132	536	530
133	773	727
134	16	999
135	909	480
136	454	19
137	336	330
138	711	760
139	205	418
140	659	161
141	691	656
142	977	353
143	347	978
144	86	636
145	581	772
146	350	838
147	135	829
148	702	388
149	353	563
150	333	413
151	829	251
152	841	351
153	525	73
154	632	182
155	650	794
156	514	173
157	523	236
158	973	372
159	12	235
160	36	900
161	951	446
162	791	942
163	927	932
164	5	440
165	237	911
166	991	198
167	168	638
168	631	327
169	387	287
170	443	306
171	792	391
172	988	843
173	531	107
174	35	327
175	360	951
176	149	676
177	507	184
178	982	570
179	274	836
180	665	611
181	312	192
182	520	544
183	158	449
184	462	573
185	52	591
186	654	398
187	249	542
188	685	603
189	247	643
190	922	528
191	279	494
192	120	257
193	359	372
194	17	450
195	559	624
196	194	575
197	513	368
198	995	276
199	164	198
200	471	86
201	766	899
202	301	641
203	383	873
204	235	512
205	886	853
206	686	124
207	98	553
208	780	19
209	589	453
210	425	574
211	504	595
212	413	593
213	768	457
214	63	992
215	397	409
216	445	138
217	676	795
218	742	642
219	432	840
DEMAND_SECTION
1	0
2	1
3	1
4	1
5	1
6	1
7	1
8	1
9	1
10	1
11	1
12	1
13	1
14	1
15	1
16	1
17	1
18	1
19	1
20	1
21	1
22	1
23	1
24	1
25	1
26	1
27	1
28	1
29	1
30	1
31	1
32	1
33	1
34	1
35	1
36	1
37	1
38	1
39	1
40	1
41	1
42	1
43	1
44	1
45	1
46	1
47	1
48	1
49	1
50	1
51	1
52	1
53	1
54	1
55	1
56	1
57	1
58	1
59	1
60	1
61	1
62	1
63	1
64	1
65	1
66	1
67	1
68	1
69	1
70	1
71	1
72	1
73	1
74	1
75	1
76	1
77	1
78	1
79	1
80	1
81	1
82	1
83	1
84	1
85	1
86	1
87	1
88	1
89	1
90	1
91	1
92	1
93	1
94	1
95	1
96	1
97	1
98	1
99	1
100	1
101	1
102	1
103	1
104	1
105	1
106	1
107	1
108	1
109	1
110	1
111	1
112	1
113	1
114	1
115	1
116	1
117	1
118	1
119	1
120	1
121	1
122	1
123	1
124	1
125	1
126	1
127	1
128	1
129	1
130	1
131	1
132	1
133	1
134	1
135	1
136	1
137	1
138	1
139	1
140	1
141	1
142	1
143	1
144	1
145	1
146	1
147	1
148	1
149	1
150	1
151	1
152	1
153	1
154	1
155	1
156	1
157	1
158	1
159	1
160	1
161	1
162	1
163	1
164	1
165	1
166	1
167	1
168	1
169	1
170	1
171	1
172	1
173	1
174	1
175	1
176	1
177	1
178	1
179	1
180	1
181	1
182	1
183	1
184	1
185	1
186	1
187	1
188	1
189	1
190	1
191	1
192	1
193	1
194	1
195	1
196	1
197	1
198	1
199	1
200	1
201	1
202	1
203	1
204	1
205	1
206	1
207	1
208	1
209	1
210	1
211	1
212	1
213	1
214	1
215	1
216	1
217	1
218	1
219	1
DEPOT_SECTION
1
-1
EOF
